PROBLEM NAME: eil51_n5
KNAPSACK DATA TYPE: multiple strongly correlated
DIMENSION: 5
NUMBER OF ITEMS: 40
CAPACITY OF KNAPSACK: 18770
MIN SPEED: 0.1
MAX SPEED: 1
RENTING RATIO: 40.23
EDGE_WEIGHT_TYPE: CEIL_2D
NODE_COORD_SECTION	(INDEX, X, Y):
1	31	32
2	36	16
3	62	63
4	5	6
5	30	15
ITEMS SECTION	(INDEX, PROFIT, WEIGHT, ASSIGNED NODE NUMBER):
1	1171	971	3
2	1125	925	3
3	1103	903	3
4	1098	898	3
5	1091	891	3
6	1087	887	3
7	1067	867	3
8	1032	832	3
9	1032	832	3
10	1008	808	3
11	1001	801	2
12	927	727	2
13	916	716	2
14	910	710	2
15	832	632	2
16	802	602	2
17	772	572	2
18	748	548	2
19	737	537	2
20	718	518	2
21	714	514	5
22	648	348	5
23	634	434	5
24	631	431	5
25	583	383	5
26	583	383	5
27	577	377	5
28	543	343	5
29	508	308	5
30	481	281	5
31	472	272	4
32	439	239	4
33	438	138	4
34	418	218	4
35	412	212	4
36	365	165	4
37	316	116	4
38	311	111	4
39	306	106	4
40	291	91	4
